672757
0,35,6,209,182,19,116,21,25,95,90,143,144,210,155,4,63,43,222,175,16,46,224,47,110,133,18,226,124,45,213,196,142,10,75,56,173,163,153,64,199,197,9,200,13,109,119,7,96,164,193,12,219,29,14,136,137,2,59,15,188,184,207,158,22,68,225,176,50,97,41,159,112,72,208,217,205,172,123,130,147,60,181,79,131,51,24,122,84,187,180,135,194,192,118,85,69,125,121,151,190,113,28,83,94,78,166,220,58,138,57,212,92,167,171,203,1,114,148,76,221,40,127,105,140,218,23,65,189,98,215,99,52,91,17,55,53,174,104,201,120,179,157,81,229,44,211,103,102,186,11,145,87,227,108,89,185,170,149,169,141,3,20,216,152,128,32,223,37,202,5,67,8,165,100,183,160,115,88,106,195,178,191,36,33,204,74,214,77,27,150,49,107,93,34,86,54,61,101,129,80,39,168,26,111,154,132,228,161,134,82,156,42,30,198,177,162,126,146,66,206,38,73,139,70,48,117,31,62,71,0